NAME : OMNETRUN
COMMENT : 524.61
TYPE : CVRP
DIMENSION : 21
EDGE_WEIGHT_TYPE : EUC_2D
CAPACITY : 21
NODE_COORD_SECTION
1 0.107093 -0.77924
2 127.72 -390.012
3 66.8517 -5043.22
4 111.87 -5766.19
5 270.697 -781.335
6 297.206 -1301.68
7 270.664 -2493.32
8 483.03 -3379.43
9 251.955 -3974.98
10 376.351 -4649.5
11 396.878 -5211.83
12 464.813 -5835.4
13 610.115 -286.313
14 639.401 -855.648
15 724.767 -1259.14
16 513.619 -1845.02
17 708.015 -2387.62
18 703.067 -3843.09
19 643.227 -4275.85
20 682.961 -5417.09
21 922.747 -2907.47
DEMAND_SECTION
1 0
2 1
3 1
4 1
5 1
6 1
7 1
8 1
9 1
10 1
11 1
12 1
13 1
14 1
15 1
16 1
17 1
18 1
19 1
20 1
21 1
DEPOT_SECTION
1
-1
EOF
